147
77
436
179
34
161
19
44
97
118
48
30
145
50
171
84
59
80
98
72
55
66
256
51
78
55
27
42
84
85
91
95
58
49
145
94
92
25
133
97
103
148
98
169
103
36
97
51
43
82
181
159
44
33
84
193
33
32
304
76
173
84
38
33
145
106
122
33
49
22
219
93
83
14
104
126
152
113
37
210
131
187
135
36
67
407
167
77
169
155
35
40
38
29
107
89
82
130
143
118
